NAME : portcgen-25-10
COMMENT : portcgen N=25, seed=10
TYPE : TSP
DIMENSION : 25
EDGE_WEIGHT_TYPE : EUC_2D
NODE_COORD_SECTION
1 56 75
2 80 89
3 81 100
4 92 62
5 79 84
6 74 98
7 91 47
8 92 87
9 58 74
10 60 101
11 74 80
12 57 77
13 98 90
14 90 42
15 63 76
16 85 120
17 91 85
18 81 82
19 72 89
20 99 58
21 90 98
22 79 81
23 86 89
24 60 106
25 82 53
